5
Time=0.000 ps, Step=0, T=310.0 K, E_tot=24.049 kJ/mol
N      1.458000     0.000000     0.000000
C      2.009000     1.420000     0.000000
C      1.562000     2.163000     1.252000
O      0.735000     1.685000     2.056000
C      3.529000     1.388000     0.000000
5
Time=0.010 ps, Step=20, T=294.2 K, E_tot=24.112 kJ/mol
N      1.439090     0.009093    -0.099283
C      2.032024     1.472463    -0.028968
C      1.561042     2.135920     1.306562
O      0.740484     1.683257     2.096786
C      3.521681     1.354335     0.035860
5
Time=0.020 ps, Step=40, T=369.1 K, E_tot=23.826 kJ/mol
N      1.439274     0.046263    -0.216909
C      2.004222     1.478740    -0.023323
C      1.589035     2.117514     1.322924
O      0.731037     1.682420     2.156923
C      3.533859     1.324231     0.070922
5
Time=0.030 ps, Step=60, T=309.8 K, E_tot=23.565 kJ/mol
N      1.441620     0.100800    -0.336154
C      1.989424     1.455099     0.003902
C      1.607931     2.095813     1.339469
O      0.728890     1.685223     2.207236
C      3.529886     1.302239     0.099194
5
Time=0.040 ps, Step=80, T=309.4 K, E_tot=23.472 kJ/mol
N      1.425638     0.140493    -0.449579
C      2.028587     1.447801     0.035815
C      1.590944     2.062880     1.387620
O      0.746439     1.692598     2.231472
C      3.502971     1.286359     0.119121
5
Time=0.050 ps, Step=100, T=219.4 K, E_tot=24.074 kJ/mol
N      1.395429     0.177336    -0.549674
C      2.051777     1.455859     0.070919
C      1.579805     2.037132     1.430336
O      0.759951     1.686934     2.246705
C      3.508152     1.268627     0.137740
5
Time=0.060 ps, Step=120, T=253.4 K, E_tot=24.729 kJ/mol
N      1.362805     0.240297    -0.623391
C      2.027786     1.449044     0.092148
C      1.604968     2.034497     1.444642
O      0.750147     1.655533     2.268258
C      3.558085     1.246480     0.159463
5
Time=0.070 ps, Step=140, T=242.5 K, E_tot=25.498 kJ/mol
N      1.321521     0.322199    -0.665915
C      2.043905     1.434752     0.090343
C      1.627079     2.036789     1.458880
O      0.733939     1.609006     2.282330
C      3.589589     1.224943     0.177878
5
Time=0.080 ps, Step=160, T=298.4 K, E_tot=25.744 kJ/mol
N      1.268551     0.406331    -0.685512
C      2.121986     1.446132     0.097434
C      1.615275     2.017470     1.477970
O      0.732607     1.560795     2.273214
C      3.586858     1.198988     0.186691
5
Time=0.090 ps, Step=180, T=335.2 K, E_tot=25.829 kJ/mol
N      1.228893     0.501515    -0.681583
C      2.151621     1.481240     0.125279
C      1.600111     1.986084     1.478682
O      0.740930     1.507770     2.245397
C      3.607550     1.154895     0.190605
5
Time=0.100 ps, Step=200, T=330.9 K, E_tot=25.376 kJ/mol
N      1.213270     0.608987    -0.658547
C      2.120997     1.515608     0.142225
C      1.604334     1.972035     1.476562
O      0.746379     1.442731     2.210198
C      3.644911     1.095877     0.195802
5
Time=0.110 ps, Step=220, T=350.7 K, E_tot=25.270 kJ/mol
N      1.196572     0.702569    -0.642050
C      2.144891     1.548340     0.139667
C      1.614315     1.980362     1.501797
O      0.748057     1.369556     2.174298
C      3.628274     1.043157     0.201706
5
Time=0.120 ps, Step=240, T=324.0 K, E_tot=24.795 kJ/mol
N      1.173258     0.772343    -0.648542
C      2.213685     1.600967     0.143674
C      1.628755     1.989584     1.538190
O      0.750852     1.298157     2.143769
C      3.568505     0.995043     0.209542
5
Time=0.130 ps, Step=260, T=338.7 K, E_tot=24.744 kJ/mol
N      1.172342     0.842091    -0.666884
C      2.214553     1.677218     0.154043
C      1.652874     1.976685     1.562461
O      0.762499     1.238751     2.121311
C      3.529072     0.929484     0.226207
5
Time=0.140 ps, Step=280, T=307.6 K, E_tot=24.496 kJ/mol
N      1.197860     0.926538    -0.690642
C      2.170246     1.739297     0.153024
C      1.669572     1.936646     1.584015
O      0.787886     1.197129     2.108279
C      3.493107     0.864404     0.250738
5
Time=0.150 ps, Step=300, T=348.1 K, E_tot=24.428 kJ/mol
N      1.220368     1.015040    -0.733521
C      2.179962     1.755590     0.157250
C      1.674466     1.887064     1.603386
O      0.816657     1.164019     2.111157
C      3.413924     0.838587     0.273310
5
Time=0.160 ps, Step=320, T=302.0 K, E_tot=24.136 kJ/mol
N      1.228068     1.102271    -0.797954
C      2.221660     1.749300     0.182230
C      1.685871     1.853527     1.606777
O      0.832700     1.124019     2.133166
C      3.330472     0.829970     0.290764
5
Time=0.170 ps, Step=340, T=328.0 K, E_tot=24.256 kJ/mol
N      1.235390     1.199476    -0.862430
C      2.214595     1.757295     0.195238
C      1.696457     1.840035     1.612075
O      0.839200     1.076989     2.163902
C      3.309755     0.784752     0.306708
5
Time=0.180 ps, Step=360, T=317.5 K, E_tot=23.966 kJ/mol
N      1.242113     1.306787    -0.913712
C      2.185670     1.766333     0.185262
C      1.676111     1.831791     1.639668
O      0.851103     1.035305     2.188839
C      3.335329     0.714339     0.315678
5
Time=0.190 ps, Step=380, T=343.6 K, E_tot=23.908 kJ/mol
N      1.235704     1.415176    -0.956426
C      2.210188     1.736339     0.201594
C      1.626703     1.826541     1.659074
O      0.868810     0.999492     2.206158
C      3.344108     0.670885     0.306684
5
Time=0.200 ps, Step=400, T=324.2 K, E_tot=23.529 kJ/mol
N      1.234804     1.524085    -0.974975
C      2.252270     1.676972     0.248504
C      1.576979     1.831985     1.638717
O      0.884014     0.960628     2.220931
C      3.332546     0.649569     0.282084
5
Time=0.210 ps, Step=420, T=354.8 K, E_tot=23.325 kJ/mol
N      1.268953     1.632068    -0.947631
C      2.232399     1.641015     0.267509
C      1.532310     1.834763     1.602273
O      0.900111     0.922594     2.231421
C      3.335821     0.607481     0.253662
5
Time=0.220 ps, Step=440, T=266.2 K, E_tot=23.208 kJ/mol
N      1.317352     1.732103    -0.906941
C      2.195600     1.632497     0.259936
C      1.479301     1.817757     1.586856
O      0.922908     0.894722     2.233339
C      3.338821     0.553473     0.226644
5
Time=0.230 ps, Step=460, T=290.2 K, E_tot=23.665 kJ/mol
N      1.343411     1.826133    -0.905676
C      2.221627     1.619799     0.284403
C      1.426139     1.790345     1.586553
O      0.946640     0.867432     2.233453
C      3.303955     0.520278     0.200855
5
Time=0.240 ps, Step=480, T=265.2 K, E_tot=23.960 kJ/mol
N      1.363493     1.912634    -0.930900
C      2.265156     1.628348     0.327341
C      1.397362     1.765830     1.580361
O      0.962559     0.824902     2.243230
C      3.244579     0.492020     0.180499
5
Time=0.250 ps, Step=500, T=356.4 K, E_tot=23.957 kJ/mol
N      1.412261     1.984922    -0.935621
C      2.264659     1.691692     0.323876
C      1.391528     1.738835     1.576775
O      0.972473     0.768721     2.260759
C      3.180833     0.446205     0.169708
5
Time=0.260 ps, Step=520, T=302.2 K, E_tot=23.706 kJ/mol
N      1.474559     2.047732    -0.928282
C      2.263640     1.752278     0.294570
C      1.388190     1.708916     1.586012
O      0.984860     0.711867     2.272450
C      3.096039     0.418021     0.165644
5
Time=0.270 ps, Step=540, T=324.7 K, E_tot=23.678 kJ/mol
N      1.521046     2.111974    -0.941902
C      2.294468     1.757586     0.316959
C      1.384032     1.684034     1.591332
O      1.004484     0.662494     2.269962
C      2.989016     0.428443     0.157135
5
Time=0.280 ps, Step=560, T=243.8 K, E_tot=23.953 kJ/mol
N      1.562756     2.175628    -0.953915
C      2.309579     1.754653     0.376515
C      1.377896     1.661366     1.590099
O      1.029677     0.626400     2.254746
C      2.897843     0.427890     0.133089
5
Time=0.290 ps, Step=580, T=279.3 K, E_tot=24.466 kJ/mol
N      1.619691     2.233930    -0.922200
C      2.288764     1.781647     0.399511
C      1.353973     1.640918     1.600020
O      1.054976     0.601189     2.235500
C      2.842484     0.386936     0.088823
5
Time=0.300 ps, Step=600, T=264.1 K, E_tot=24.890 kJ/mol
N      1.674803     2.297142    -0.862936
C      2.275606     1.778015     0.391997
C      1.311583     1.640062     1.609903
O      1.073365     0.576135     2.224691
C      2.809269     0.351079     0.031738
5
Time=0.310 ps, Step=620, T=327.3 K, E_tot=24.958 kJ/mol
N      1.707732     2.379830    -0.815066
C      2.288554     1.707929     0.412082
C      1.274134     1.648652     1.593359
O      1.080914     0.554038     2.227293
C      2.785311     0.345581    -0.031094
5
Time=0.320 ps, Step=640, T=316.0 K, E_tot=24.936 kJ/mol
N      1.732861     2.470312    -0.766274
C      2.295854     1.650226     0.442361
C      1.255669     1.616733     1.560834
O      1.076701     0.553733     2.237703
C      2.772783     0.330091    -0.099614
5
Time=0.330 ps, Step=660, T=375.8 K, E_tot=24.434 kJ/mol
N      1.768582     2.548348    -0.692024
C      2.291682     1.653494     0.430600
C      1.244850     1.539048     1.531980
O      1.063095     0.569527     2.254429
C      2.764242     0.292465    -0.167868
5
Time=0.340 ps, Step=680, T=337.2 K, E_tot=24.076 kJ/mol
N      1.806369     2.623560    -0.615519
C      2.304604     1.645520     0.394847
C      1.230513     1.474847     1.489818
O      1.046914     0.569292     2.286298
C      2.743144     0.277242    -0.221622
5
Time=0.350 ps, Step=700, T=328.6 K, E_tot=23.684 kJ/mol
N      1.841455     2.706178    -0.560945
C      2.331724     1.593902     0.386462
C      1.210586     1.442866     1.424847
O      1.037428     0.548508     2.328664
C      2.707669     0.292178    -0.268343
5
Time=0.360 ps, Step=720, T=313.7 K, E_tot=23.814 kJ/mol
N      1.891234     2.769760    -0.512494
C      2.342976     1.578080     0.406637
C      1.176489     1.393762     1.377737
O      1.041679     0.537573     2.353239
C      2.666799     0.297522    -0.330643
5
Time=0.370 ps, Step=740, T=375.3 K, E_tot=23.267 kJ/mol
N      1.962350     2.799081    -0.455767
C      2.331924     1.608911     0.432166
C      1.125399     1.312650     1.363475
O      1.060702     0.546979     2.349684
C      2.620670     0.301080    -0.403331
5
Time=0.380 ps, Step=760, T=405.6 K, E_tot=22.620 kJ/mol
N      2.039542     2.818008    -0.400894
C      2.306485     1.594736     0.457149
C      1.074045     1.244396     1.332988
O      1.091165     0.555565     2.344899
C      2.566866     0.350002    -0.455444
5
Time=0.390 ps, Step=780, T=392.2 K, E_tot=21.469 kJ/mol
N      2.113480     2.837135    -0.346975
C      2.272398     1.534427     0.477695
C      1.031137     1.202237     1.270825
O      1.125720     0.555403     2.353994
C      2.511606     0.430380    -0.488820
5
Time=0.400 ps, Step=800, T=318.6 K, E_tot=21.205 kJ/mol
N      2.183188     2.842694    -0.277526
C      2.245168     1.516821     0.485790
C      0.989483     1.152597     1.229026
O      1.152083     0.561064     2.356927
C      2.464083     0.483601    -0.540015
5
Time=0.410 ps, Step=820, T=288.5 K, E_tot=21.168 kJ/mol
N      2.242818     2.850204    -0.195140
C      2.231719     1.533652     0.485383
C      0.959398     1.090530     1.228567
O      1.161068     0.577068     2.343953
C      2.426109     0.498762    -0.617943
5
Time=0.420 ps, Step=840, T=315.2 K, E_tot=21.425 kJ/mol
N      2.285641     2.891431    -0.112719
C      2.221810     1.496759     0.473040
C      0.962685     1.050750     1.228718
O      1.152996     0.590430     2.337711
C      2.393544     0.509558    -0.693555
5
Time=0.430 ps, Step=860, T=343.2 K, E_tot=21.087 kJ/mol
N      2.311237     2.942221    -0.021568
C      2.222734     1.424837     0.431117
C      0.990131     1.043715     1.206602
O      1.132581     0.593510     2.354768
C      2.362516     0.525183    -0.758534
5
Time=0.440 ps, Step=880, T=376.5 K, E_tot=20.652 kJ/mol
N      2.324575     2.948588     0.085695
C      2.249638     1.413857     0.372835
C      1.017433     1.043855     1.188707
O      1.103782     0.593745     2.378304
C      2.331117     0.528283    -0.838796
5
Time=0.450 ps, Step=900, T=294.1 K, E_tot=20.256 kJ/mol
N      2.333943     2.923109     0.189301
C      2.282118     1.437784     0.336844
C      1.046844     1.037280     1.190352
O      1.073093     0.600068     2.385687
C      2.299180     0.532222    -0.935109
5
Time=0.460 ps, Step=920, T=281.9 K, E_tot=20.645 kJ/mol
N      2.346035     2.914339     0.271194
C      2.295191     1.397086     0.328971
C      1.083812     1.028095     1.192430
O      1.049045     0.612846     2.376638
C      2.267070     0.575313    -1.012762
5
Time=0.470 ps, Step=940, T=271.7 K, E_tot=20.944 kJ/mol
N      2.364723     2.905063     0.330199
C      2.306390     1.320402     0.335818
C      1.100191     1.009583     1.179111
O      1.038634     0.627748     2.363092
C      2.231566     0.661476    -1.057056
5
Time=0.480 ps, Step=960, T=377.4 K, E_tot=20.849 kJ/mol
N      2.392426     2.848918     0.371441
C      2.337559     1.299895     0.356084
C      1.075073     0.971248     1.148997
O      1.042026     0.641757     2.352556
C      2.188691     0.767133    -1.081269
5
Time=0.490 ps, Step=980, T=333.9 K, E_tot=20.235 kJ/mol
N      2.430556     2.774892     0.401807
C      2.357048     1.308956     0.379351
C      1.043041     0.918862     1.107675
O      1.050622     0.654660     2.343049
C      2.145317     0.879599    -1.085963
5
Time=0.500 ps, Step=1000, T=330.8 K, E_tot=20.106 kJ/mol
N      2.479754     2.744557     0.432061
C      2.331619     1.270537     0.387082
C      1.042562     0.864080     1.075903
O      1.054006     0.666811     2.325082
C      2.109345     0.991991    -1.073272
5
Time=0.510 ps, Step=1020, T=260.9 K, E_tot=20.187 kJ/mol
N      2.536728     2.748123     0.473532
C      2.297624     1.215259     0.378863
C      1.052640     0.806981     1.072045
O      1.048321     0.676474     2.299281
C      2.074392     1.087337    -1.075190
5
Time=0.520 ps, Step=1040, T=299.6 K, E_tot=20.620 kJ/mol
N      2.593418     2.732504     0.532607
C      2.303556     1.219413     0.361444
C      1.044074     0.746392     1.077324
O      1.034335     0.680862     2.286500
C      2.029545     1.156142    -1.114916
5
Time=0.530 ps, Step=1060, T=325.1 K, E_tot=20.522 kJ/mol
N      2.646485     2.698676     0.608948
C      2.318983     1.261357     0.327002
C      1.047622     0.699809     1.058553
O      1.011373     0.678546     2.301560
C      1.979269     1.203316    -1.170792
5
Time=0.540 ps, Step=1080, T=353.7 K, E_tot=20.180 kJ/mol
N      2.698815     2.680142     0.699386
C      2.295868     1.271163     0.265620
C      1.094151     0.683180     1.031540
O      0.981241     0.670691     2.321550
C      1.934966     1.242215    -1.214491
5
Time=0.550 ps, Step=1100, T=258.9 K, E_tot=20.221 kJ/mol
N      2.745680     2.660400     0.787507
C      2.266923     1.270474     0.208029
C      1.144345     0.677387     1.038717
O      0.955481     0.662057     2.312599
C      1.893377     1.283220    -1.254919
5
Time=0.560 ps, Step=1120, T=235.4 K, E_tot=20.852 kJ/mol
N      2.780630     2.610206     0.850659
C      2.272352     1.305157     0.199189
C      1.159123     0.654937     1.061057
O      0.944269     0.658621     2.280778
C      1.847347     1.334100    -1.299679
5
Time=0.570 ps, Step=1140, T=211.8 K, E_tot=21.888 kJ/mol
N      2.812879     2.555699     0.890470
C      2.271754     1.330968     0.214058
C      1.159725     0.619255     1.038143
O      0.944186     0.662063     2.258192
C      1.809845     1.402951    -1.307975
5
Time=0.580 ps, Step=1160, T=312.9 K, E_tot=22.213 kJ/mol
N      2.851910     2.526159     0.920039
C      2.235547     1.305929     0.201146
C      1.160764     0.581357     0.979940
O      0.949011     0.668627     2.244416
C      1.793068     1.491593    -1.252994
5
Time=0.590 ps, Step=1180, T=297.3 K, E_tot=22.365 kJ/mol
N      2.884352     2.496846     0.930810
C      2.221630     1.275715     0.191102
C      1.138922     0.538679     0.952478
O      0.957142     0.671868     2.211588
C      1.780163     1.594352    -1.184321
5
Time=0.600 ps, Step=1200, T=308.4 K, E_tot=22.258 kJ/mol
N      2.901957     2.447983     0.921527
C      2.255464     1.259983     0.220218
C      1.106122     0.504299     0.957814
O      0.961124     0.666299     2.164006
C      1.753296     1.708867    -1.144567
5
Time=0.610 ps, Step=1220, T=261.0 K, E_tot=22.708 kJ/mol
N      2.920223     2.402887     0.917868
C      2.277941     1.225633     0.232343
C      1.108794     0.503170     0.944904
O      0.948693     0.649838     2.137321
C      1.723404     1.818862    -1.103968
5
Time=0.620 ps, Step=1240, T=316.8 K, E_tot=22.791 kJ/mol
N      2.947522     2.366487     0.933089
C      2.275592     1.193037     0.178303
C      1.141409     0.527125     0.907864
O      0.918671     0.623929     2.140713
C      1.701292     1.904463    -1.035158
5
Time=0.630 ps, Step=1260, T=280.2 K, E_tot=22.955 kJ/mol
N      2.975880     2.313042     0.952080
C      2.302574     1.206891     0.110449
C      1.156512     0.546340     0.886123
O      0.885093     0.593249     2.145269
C      1.670862     1.974587    -0.973778
5
Time=0.640 ps, Step=1280, T=263.1 K, E_tot=23.310 kJ/mol
N      3.011431     2.245166     0.969222
C      2.346195     1.239370     0.094330
C      1.155853     0.554580     0.882738
O      0.860456     0.562827     2.128902
C      1.619260     2.053547    -0.952464
5
Time=0.650 ps, Step=1300, T=295.4 K, E_tot=23.727 kJ/mol
N      3.072734     2.192249     1.001786
C      2.327014     1.254328     0.108033
C      1.170042     0.559695     0.869023
O      0.847666     0.535871     2.095593
C      1.569798     2.131091    -0.946060
5
Time=0.660 ps, Step=1320, T=333.6 K, E_tot=23.576 kJ/mol
N      3.153585     2.153044     1.046490
C      2.250155     1.286551     0.107625
C      1.176736     0.546092     0.844695
O      0.847424     0.515733     2.055527
C      1.545998     2.185015    -0.920086
5
Time=0.670 ps, Step=1340, T=335.4 K, E_tot=23.340 kJ/mol
N      3.219938     2.101304     1.072328
C      2.205116     1.363890     0.119702
C      1.146640     0.498143     0.816692
O      0.856381     0.503889     2.019058
C      1.531823     2.231741    -0.885714
5
Time=0.680 ps, Step=1360, T=266.2 K, E_tot=23.371 kJ/mol
N      3.260940     2.039993     1.073958
C      2.196057     1.427758     0.171734
C      1.119678     0.449047     0.774018
O      0.863145     0.493630     1.994464
C      1.511018     2.302132    -0.864215
5
Time=0.690 ps, Step=1380, T=250.5 K, E_tot=24.004 kJ/mol
N      3.296987     1.986672     1.075687
C      2.153918     1.439405     0.207793
C      1.136739     0.437666     0.738432
O      0.858943     0.474088     1.972252
C      1.499656     2.390078    -0.837116
5
Time=0.700 ps, Step=1400, T=263.6 K, E_tot=24.530 kJ/mol
N      3.322207     1.934566     1.076433
C      2.106288     1.454637     0.186756
C      1.168270     0.443772     0.744484
O      0.843800     0.442178     1.941740
C      1.506515     2.472012    -0.782358
5
Time=0.710 ps, Step=1420, T=307.9 K, E_tot=24.764 kJ/mol
N      3.315688     1.876350     1.055308
C      2.128931     1.493723     0.155540
C      1.182060     0.441037     0.761465
O      0.818671     0.404044     1.919676
C      1.511156     2.554347    -0.714098
5
Time=0.720 ps, Step=1440, T=306.8 K, E_tot=24.753 kJ/mol
N      3.304386     1.829686     1.025917
C      2.179455     1.496974     0.139033
C      1.196960     0.447997     0.736723
O      0.783940     0.366209     1.922070
C      1.505177     2.648952    -0.641763
5
Time=0.730 ps, Step=1460, T=303.4 K, E_tot=24.832 kJ/mol
N      3.324996     1.806397     1.018094
C      2.184692     1.468554     0.094796
C      1.208377     0.464441     0.695654
O      0.752705     0.334961     1.921839
C      1.506093     2.729710    -0.547026
5
Time=0.740 ps, Step=1480, T=321.3 K, E_tot=24.783 kJ/mol
N      3.357806     1.792893     1.018418
C      2.176821     1.463761     0.032555
C      1.180243     0.462179     0.684216
O      0.742087     0.319003     1.886036
C      1.517979     2.773769    -0.426034
5
Time=0.750 ps, Step=1500, T=335.8 K, E_tot=24.664 kJ/mol
N      3.366834     1.772489     0.994831
C      2.195248     1.469616     0.023608
C      1.134286     0.454891     0.663384
O      0.749226     0.320035     1.831661
C      1.525471     2.797624    -0.296319
5
Time=0.760 ps, Step=1520, T=375.0 K, E_tot=24.078 kJ/mol
N      3.363625     1.742471     0.958802
C      2.198671     1.456802     0.070319
C      1.118857     0.472765     0.590330
O      0.761348     0.330435     1.788053
C      1.525072     2.813717    -0.169873
5
Time=0.770 ps, Step=1540, T=303.1 K, E_tot=23.855 kJ/mol
N      3.379911     1.701898     0.944150
C      2.164853     1.461682     0.097842
C      1.119153     0.494633     0.520831
O      0.774874     0.342704     1.743246
C      1.521584     2.817941    -0.051125
5
Time=0.780 ps, Step=1560, T=331.4 K, E_tot=23.773 kJ/mol
N      3.412570     1.644563     0.950658
C      2.144384     1.506662     0.077765
C      1.103216     0.489616     0.502523
O      0.786801     0.351096     1.685119
C      1.504018     2.833662     0.057096
5
Time=0.790 ps, Step=1580, T=323.9 K, E_tot=23.624 kJ/mol
N      3.435266     1.573230     0.952956
C      2.162978     1.545905     0.048056
C      1.099345     0.481795     0.487702
O      0.785609     0.347612     1.643325
C      1.464414     2.890069     0.154617
5
Time=0.800 ps, Step=1600, T=329.0 K, E_tot=23.394 kJ/mol
N      3.438957     1.498079     0.937772
C      2.178129     1.572637     0.043557
C      1.141019     0.501596     0.435626
O      0.766170     0.329187     1.633451
C      1.429178     2.955719     0.242052
5
Time=0.810 ps, Step=1620, T=304.0 K, E_tot=23.387 kJ/mol
N      3.432563     1.428450     0.909206
C      2.163832     1.636951     0.063630
C      1.195183     0.526992     0.397008
O      0.741347     0.302907     1.616115
C      1.429832     2.982212     0.317003
5
Time=0.820 ps, Step=1640, T=281.2 K, E_tot=23.511 kJ/mol
N      3.424466     1.377158     0.872396
C      2.147624     1.712337     0.092359
C      1.217550     0.535163     0.412873
O      0.724559     0.276889     1.559446
C      1.455479     2.993129     0.390820
5
Time=0.830 ps, Step=1660, T=285.0 K, E_tot=23.860 kJ/mol
N      3.424109     1.356150     0.832429
C      2.144388     1.719100     0.118085
C      1.217738     0.545662     0.432808
O      0.707635     0.249551     1.491978
C      1.481486     3.036782     0.481638
5
Time=0.840 ps, Step=1680, T=298.4 K, E_tot=24.041 kJ/mol
N      3.446403     1.360954     0.798174
C      2.132492     1.693474     0.141078
C      1.207990     0.558638     0.399372
O      0.677343     0.217467     1.453280
C      1.517480     3.086564     0.583575
5
Time=0.850 ps, Step=1700, T=384.5 K, E_tot=23.688 kJ/mol
N      3.488027     1.379245     0.770264
C      2.116343     1.725693     0.170432
C      1.166427     0.546741     0.332864
O      0.640116     0.184937     1.435574
C      1.576239     3.088245     0.676863
5
Time=0.860 ps, Step=1720, T=297.0 K, E_tot=23.331 kJ/mol
N      3.524076     1.406548     0.740272
C      2.120430     1.767919     0.200580
C      1.102984     0.536710     0.285779
O      0.608082     0.156152     1.407267
C      1.636225     3.062553     0.766481
5
Time=0.870 ps, Step=1740, T=341.7 K, E_tot=23.284 kJ/mol
N      3.544397     1.436888     0.705402
C      2.130790     1.738437     0.214378
C      1.062963     0.579733     0.277371
O      0.581879     0.129362     1.357423
C      1.677092     3.049313     0.868151
5
Time=0.880 ps, Step=1760, T=266.3 K, E_tot=23.326 kJ/mol
N      3.558196     1.450831     0.669800
C      2.127914     1.709781     0.224642
C      1.051156     0.651180     0.290614
O      0.559735     0.104633     1.298966
C      1.705180     3.023203     0.964027
5
Time=0.890 ps, Step=1780, T=302.7 K, E_tot=23.600 kJ/mol
N      3.569268     1.434953     0.634326
C      2.129876     1.766151     0.251343
C      1.037707     0.700312     0.295986
O      0.542390     0.082078     1.248166
C      1.726859     2.966260     1.040991
5
Time=0.900 ps, Step=1800, T=284.3 K, E_tot=23.832 kJ/mol
N      3.573368     1.395488     0.598569
C      2.144754     1.840189     0.272100
C      1.028154     0.734606     0.272179
O      0.531114     0.060937     1.213490
C      1.731773     2.932112     1.131929
5
Time=0.910 ps, Step=1820, T=348.0 K, E_tot=23.654 kJ/mol
N      3.567360     1.345598     0.563723
C      2.152391     1.859202     0.267561
C      1.037409     0.773629     0.229076
O      0.532206     0.049039     1.183299
C      1.720432     2.948105     1.260422
5
Time=0.920 ps, Step=1840, T=311.1 K, E_tot=23.568 kJ/mol
N      3.549364     1.292726     0.530453
C      2.138243     1.873586     0.282742
C      1.044728     0.794300     0.193750
O      0.554985     0.060526     1.137211
C      1.717905     2.959407     1.380758
5
Time=0.930 ps, Step=1860, T=353.7 K, E_tot=23.205 kJ/mol
N      3.512952     1.247096     0.498554
C      2.111343     1.917238     0.349864
C      1.041784     0.798863     0.167999
O      0.593683     0.089869     1.077565
C      1.738664     2.925319     1.456036
5
Time=0.940 ps, Step=1880, T=297.2 K, E_tot=23.150 kJ/mol
N      3.456050     1.224324     0.472675
C      2.092965     1.928273     0.411781
C      1.050002     0.836087     0.138069
O      0.628215     0.111466     1.026372
C      1.769186     2.874849     1.522421
5
Time=0.950 ps, Step=1900, T=259.9 K, E_tot=23.364 kJ/mol
N      3.403573     1.220204     0.457813
C      2.093162     1.903320     0.420702
C      1.056105     0.906310     0.107875
O      0.648013     0.113101     0.986988
C      1.797712     2.832205     1.613484
5
Time=0.960 ps, Step=1920, T=304.4 K, E_tot=23.885 kJ/mol
N      3.394647     1.211853     0.452802
C      2.100378     1.931091     0.412967
C      1.018505     0.957143     0.091593
O      0.655239     0.103444     0.943294
C      1.828879     2.776204     1.701547
5
Time=0.970 ps, Step=1940, T=342.5 K, E_tot=23.474 kJ/mol
N      3.425634     1.197961     0.453420
C      2.101192     2.012740     0.414815
C      0.951933     0.992000     0.095420
O      0.650096     0.085910     0.891485
C      1.865351     2.699254     1.764163
5
Time=0.980 ps, Step=1960, T=313.5 K, E_tot=23.479 kJ/mol
N      3.446865     1.206694     0.453533
C      2.104414     2.049142     0.411272
C      0.910451     1.062152     0.117081
O      0.632537     0.056727     0.838137
C      1.902242     2.621390     1.816973
5
Time=0.990 ps, Step=1980, T=332.4 K, E_tot=23.217 kJ/mol
N      3.435278     1.244938     0.446056
C      2.124108     2.019324     0.421679
C      0.896140     1.149980     0.156218
O      0.611420     0.032397     0.775762
C      1.938500     2.551188     1.859234
5
Time=1.000 ps, Step=2000, T=308.5 K, E_tot=23.191 kJ/mol
N      3.424620     1.278280     0.427480
C      2.139400     1.994957     0.474026
C      0.875072     1.190757     0.208784
O      0.596261     0.036833     0.694988
C      1.976898     2.489986     1.883578
